CPXPARAM_Read_DataCheck                          1
Found incumbent of value 0.000000 after 0.00 sec. (0.03 ticks)
Tried aggregator 1 time.
MIP Presolve modified 1 coefficients.
Reduced MIP has 216 rows, 1005 columns, and 5020 nonzeros.
Reduced MIP has 1005 binaries, 0 generals, 0 SOSs, and 0 indicators.
Presolve time = 0.02 sec. (1.88 ticks)
Probing time = 0.00 sec. (1.46 ticks)
Tried aggregator 1 time.
Reduced MIP has 216 rows, 1005 columns, and 5020 nonzeros.
Reduced MIP has 1005 binaries, 0 generals, 0 SOSs, and 0 indicators.
Presolve time = 0.00 sec. (2.26 ticks)
Probing time = 0.00 sec. (1.47 ticks)
Clique table members: 1723.
MIP emphasis: balance optimality and feasibility.
MIP search method: dynamic search.
Parallel mode: deterministic, using up to 4 threads.
Root relaxation solution time = 0.02 sec. (4.20 ticks)

        Nodes                                         Cuts/
   Node  Left     Objective  IInf  Best Integer    Best Bound    ItCnt     Gap

*     0+    0                            0.0000     6156.0000              --- 
      0     0     2715.2711    12        0.0000     2715.2711      419     --- 
      0     0     2011.0157    90        0.0000     Cuts: 154      737     --- 
*     0+    0                         1917.0000     2011.0157             4.90%
      0     0     1920.0000     1     1917.0000     Cuts: 154      838    0.16%
*     0+    0                         1919.0000     1920.0000             0.05%
*     0+    0                         1920.0000     1920.0000             0.00%
      0     0        cutoff           1920.0000     1920.0000      838    0.00%
Elapsed time = 0.08 sec. (60.58 ticks, tree = 0.01 MB, solutions = 4)

Clique cuts applied:  270
Cover cuts applied:  4
Mixed integer rounding cuts applied:  9
Gomory fractional cuts applied:  4

Root node processing (before b&c):
  Real time             =    0.08 sec. (60.66 ticks)
Parallel b&c, 4 threads:
  Real time             =    0.00 sec. (0.00 ticks)
  Sync time (average)   =    0.00 sec.
  Wait time (average)   =    0.00 sec.
                          ------------
Total (root+branch&cut) =    0.08 sec. (60.66 ticks)
